32	0

0	2	2	5
1	1	3
5	1	4
2	1	6
7	1	6
8	3	7	8	9
6	1	10
7	1	11
2	1	10
6	1	11
6	1	12
6	1	13
10	2	14	15
2	1	16
10	1	16
5	2	17	18
10	1	20
4	1	19
6	1	20
9	1	21
7	1	22
1	1	23
4	1	24
8	1	25
1	1	26
9	2	27	28
7	1	29
10	1	29
6	1	30
7	1	31
4	1	32
0	0
